; Insertion sort
(declare-datatypes (a)
  ((list :source |Prelude.[]| (nil :source |Prelude.[]|)
     (cons :source |Prelude.:| (head a) (tail (list a))))))
(declare-datatypes () ((Nat (Z) (S (p Nat)))))
(define-fun-rec
  (par (a)
    (insert :source Sort.insert
       ((x a) (y (list a))) (list a)
       (match y
         (case nil (cons x (as nil (list a))))
         (case (cons z xs)
           (ite (<= x z) (cons x y) (cons z (insert x xs))))))))
(define-fun-rec
  (par (a)
    (isort :source Sort.isort
       ((x (list a))) (list a)
       (match x
         (case nil (as nil (list a)))
         (case (cons y xs) (insert y (isort xs)))))))
(define-fun-rec
  (par (a)
    (elem :let :source Prelude.elem
       ((x a) (y (list a))) Bool
       (match y
         (case nil false)
         (case (cons z xs) (or (= z x) (elem x xs)))))))
(define-fun-rec
  (par (a)
    (deleteBy :source Data.List.deleteBy
       ((x (=> a (=> a Bool))) (y a) (z (list a))) (list a)
       (match z
         (case nil (as nil (list a)))
         (case (cons y2 ys)
           (ite (@ (@ x y) y2) ys (cons y2 (deleteBy x y ys))))))))
(define-fun-rec
  (par (a)
    (isPermutation :source SortUtils.isPermutation
       ((x (list a)) (y (list a))) Bool
       (match x
         (case nil
           (match y
             (case nil true)
             (case (cons z x2) false)))
         (case (cons x3 xs)
           (and (elem x3 y)
             (isPermutation xs
               (deleteBy (lambda ((x4 a)) (lambda ((x5 a)) (= x4 x5)))
                 x3 y))))))))
(prove
  :source Sort.prop_ISortPermutes
  (forall ((x (list Nat))) (isPermutation (isort x) x)))
